\ Model linear program
\ LP format - for model browsing. Use MPS format to capture full model detail.
Minimize
  5 x + 4 y
Subject To
 c1: x + y >= 8.8
 c2: 2 x + y >= 10.22
 c3: x + 4 y >= 11.998
Bounds
Generals
 x y
End
